instances/knapsack/knapsack_interdiction/knapsack_40_1_3.mps
* Signature: 0xe2fdb6dddddb4de2
NAME knapsack_40_1_3
ROWS
 N  OBJ
 L  primal_upper
 L  primal_lower0
 L  interdiction[0]
 L  interdiction[1]
 L  interdiction[2]
 L  interdiction[3]
 L  interdiction[4]
 L  interdiction[5]
 L  interdiction[6]
 L  interdiction[7]
 L  interdiction[8]
 L  interdiction[9]
 L  interdiction[10]
 L  interdiction[11]
 L  interdiction[12]
 L  interdiction[13]
 L  interdiction[14]
 L  interdiction[15]
 L  interdiction[16]
 L  interdiction[17]
 L  interdiction[18]
 L  interdiction[19]
 L  interdiction[20]
 L  interdiction[21]
 L  interdiction[22]
 L  interdiction[23]
 L  interdiction[24]
 L  interdiction[25]
 L  interdiction[26]
 L  interdiction[27]
 L  interdiction[28]
 L  interdiction[29]
 L  interdiction[30]
 L  interdiction[31]
 L  interdiction[32]
 L  interdiction[33]
 L  interdiction[34]
 L  interdiction[35]
 L  interdiction[36]
 L  interdiction[37]
 L  interdiction[38]
 L  interdiction[39]
 L  mccormick1[0]
 L  mccormick1[1]
 L  mccormick1[2]
 L  mccormick1[3]
 L  mccormick1[4]
 L  mccormick1[5]
 L  mccormick1[6]
 L  mccormick1[7]
 L  mccormick1[8]
 L  mccormick1[9]
 L  mccormick1[10]
 L  mccormick1[11]
 L  mccormick1[12]
 L  mccormick1[13]
 L  mccormick1[14]
 L  mccormick1[15]
 L  mccormick1[16]
 L  mccormick1[17]
 L  mccormick1[18]
 L  mccormick1[19]
 L  mccormick1[20]
 L  mccormick1[21]
 L  mccormick1[22]
 L  mccormick1[23]
 L  mccormick1[24]
 L  mccormick1[25]
 L  mccormick1[26]
 L  mccormick1[27]
 L  mccormick1[28]
 L  mccormick1[29]
 L  mccormick1[30]
 L  mccormick1[31]
 L  mccormick1[32]
 L  mccormick1[33]
 L  mccormick1[34]
 L  mccormick1[35]
 L  mccormick1[36]
 L  mccormick1[37]
 L  mccormick1[38]
 L  mccormick1[39]
 L  mccormick2[0]
 L  mccormick2[1]
 L  mccormick2[2]
 L  mccormick2[3]
 L  mccormick2[4]
 L  mccormick2[5]
 L  mccormick2[6]
 L  mccormick2[7]
 L  mccormick2[8]
 L  mccormick2[9]
 L  mccormick2[10]
 L  mccormick2[11]
 L  mccormick2[12]
 L  mccormick2[13]
 L  mccormick2[14]
 L  mccormick2[15]
 L  mccormick2[16]
 L  mccormick2[17]
 L  mccormick2[18]
 L  mccormick2[19]
 L  mccormick2[20]
 L  mccormick2[21]
 L  mccormick2[22]
 L  mccormick2[23]
 L  mccormick2[24]
 L  mccormick2[25]
 L  mccormick2[26]
 L  mccormick2[27]
 L  mccormick2[28]
 L  mccormick2[29]
 L  mccormick2[30]
 L  mccormick2[31]
 L  mccormick2[32]
 L  mccormick2[33]
 L  mccormick2[34]
 L  mccormick2[35]
 L  mccormick2[36]
 L  mccormick2[37]
 L  mccormick2[38]
 L  mccormick2[39]
 L  mccormick3[0]
 L  mccormick3[1]
 L  mccormick3[2]
 L  mccormick3[3]
 L  mccormick3[4]
 L  mccormick3[5]
 L  mccormick3[6]
 L  mccormick3[7]
 L  mccormick3[8]
 L  mccormick3[9]
 L  mccormick3[10]
 L  mccormick3[11]
 L  mccormick3[12]
 L  mccormick3[13]
 L  mccormick3[14]
 L  mccormick3[15]
 L  mccormick3[16]
 L  mccormick3[17]
 L  mccormick3[18]
 L  mccormick3[19]
 L  mccormick3[20]
 L  mccormick3[21]
 L  mccormick3[22]
 L  mccormick3[23]
 L  mccormick3[24]
 L  mccormick3[25]
 L  mccormick3[26]
 L  mccormick3[27]
 L  mccormick3[28]
 L  mccormick3[29]
 L  mccormick3[30]
 L  mccormick3[31]
 L  mccormick3[32]
 L  mccormick3[33]
 L  mccormick3[34]
 L  mccormick3[35]
 L  mccormick3[36]
 L  mccormick3[37]
 L  mccormick3[38]
 L  mccormick3[39]
COLUMNS
    MARKER    'MARKER'                 'INTORG'
    x[0]      OBJ       111.09
    x[0]      interdiction[0]  1
    x[1]      OBJ       207.39
    x[1]      interdiction[1]  1
    x[2]      OBJ       126.41
    x[2]      interdiction[2]  1
    x[3]      OBJ       92.07
    x[3]      interdiction[3]  1
    x[4]      OBJ       111.54
    x[4]      interdiction[4]  1
    x[5]      OBJ       122.23
    x[5]      interdiction[5]  1
    x[6]      OBJ       60.76
    x[6]      interdiction[6]  1
    x[7]      OBJ       124.99
    x[7]      interdiction[7]  1
    x[8]      OBJ       122.43
    x[8]      interdiction[8]  1
    x[9]      OBJ       37.66
    x[9]      interdiction[9]  1
    x[10]     OBJ       126.35
    x[10]     interdiction[10]  1
    x[11]     OBJ       76.29
    x[11]     interdiction[11]  1
    x[12]     OBJ       109.21
    x[12]     interdiction[12]  1
    x[13]     OBJ       138.45
    x[13]     interdiction[13]  1
    x[14]     OBJ       106.72
    x[14]     interdiction[14]  1
    x[15]     OBJ       58.41
    x[15]     interdiction[15]  1
    x[16]     OBJ       93.39
    x[16]     interdiction[16]  1
    x[17]     OBJ       131.9
    x[17]     interdiction[17]  1
    x[18]     OBJ       29.62
    x[18]     interdiction[18]  1
    x[19]     OBJ       184.05
    x[19]     interdiction[19]  1
    x[20]     OBJ       75.38
    x[20]     interdiction[20]  1
    x[21]     OBJ       63.16
    x[21]     interdiction[21]  1
    x[22]     OBJ       169.06
    x[22]     interdiction[22]  1
    x[23]     OBJ       117.54
    x[23]     interdiction[23]  1
    x[24]     OBJ       123.87
    x[24]     interdiction[24]  1
    x[25]     OBJ       66.47
    x[25]     interdiction[25]  1
    x[26]     OBJ       212.15
    x[26]     interdiction[26]  1
    x[27]     OBJ       53.6
    x[27]     interdiction[27]  1
    x[28]     OBJ       122.43
    x[28]     interdiction[28]  1
    x[29]     OBJ       68.91
    x[29]     interdiction[29]  1
    x[30]     OBJ       187.98
    x[30]     interdiction[30]  1
    x[31]     OBJ       51.44
    x[31]     interdiction[31]  1
    x[32]     OBJ       74.84
    x[32]     interdiction[32]  1
    x[33]     OBJ       123.82
    x[33]     interdiction[33]  1
    x[34]     OBJ       155.9
    x[34]     interdiction[34]  1
    x[35]     OBJ       109.86
    x[35]     interdiction[35]  1
    x[36]     OBJ       163.32
    x[36]     interdiction[36]  1
    x[37]     OBJ       108.93
    x[37]     interdiction[37]  1
    x[38]     OBJ       41.95
    x[38]     interdiction[38]  1
    x[39]     OBJ       89.99
    x[39]     interdiction[39]  1
    y[0]      OBJ       -841
    y[0]      primal_upper  741
    y[0]      mccormick2[0]  -1
    y[0]      mccormick3[0]  1
    y[1]      OBJ       -1066
    y[1]      primal_upper  966
    y[1]      mccormick2[1]  -1
    y[1]      mccormick3[1]  1
    y[2]      OBJ       -1034
    y[2]      primal_upper  934
    y[2]      mccormick2[2]  -1
    y[2]      mccormick3[2]  1
    y[3]      OBJ       -518
    y[3]      primal_upper  418
    y[3]      mccormick2[3]  -1
    y[3]      mccormick3[3]  1
    y[4]      OBJ       -604
    y[4]      primal_upper  504
    y[4]      mccormick2[4]  -1
    y[4]      mccormick3[4]  1
    y[5]      OBJ       -908
    y[5]      primal_upper  808
    y[5]      mccormick2[5]  -1
    y[5]      mccormick3[5]  1
    y[6]      OBJ       -497
    y[6]      primal_upper  397
    y[6]      mccormick2[6]  -1
    y[6]      mccormick3[6]  1
    y[7]      OBJ       -908
    y[7]      primal_upper  808
    y[7]      mccormick2[7]  -1
    y[7]      mccormick3[7]  1
    y[8]      OBJ       -662
    y[8]      primal_upper  562
    y[8]      mccormick2[8]  -1
    y[8]      mccormick3[8]  1
    y[9]      OBJ       -245
    y[9]      primal_upper  145
    y[9]      mccormick2[9]  -1
    y[9]      mccormick3[9]  1
    y[10]     OBJ       -711
    y[10]     primal_upper  611
    y[10]     mccormick2[10]  -1
    y[10]     mccormick3[10]  1
    y[11]     OBJ       -481
    y[11]     primal_upper  381
    y[11]     mccormick2[11]  -1
    y[11]     mccormick3[11]  1
    y[12]     OBJ       -695
    y[12]     primal_upper  595
    y[12]     mccormick2[12]  -1
    y[12]     mccormick3[12]  1
    y[13]     OBJ       -861
    y[13]     primal_upper  761
    y[13]     mccormick2[13]  -1
    y[13]     mccormick3[13]  1
    y[14]     OBJ       -953
    y[14]     primal_upper  853
    y[14]     mccormick2[14]  -1
    y[14]     mccormick3[14]  1
    y[15]     OBJ       -347
    y[15]     primal_upper  247
    y[15]     mccormick2[15]  -1
    y[15]     mccormick3[15]  1
    y[16]     OBJ       -871
    y[16]     primal_upper  771
    y[16]     mccormick2[16]  -1
    y[16]     mccormick3[16]  1
    y[17]     OBJ       -898
    y[17]     primal_upper  798
    y[17]     mccormick2[17]  -1
    y[17]     mccormick3[17]  1
    y[18]     OBJ       -176
    y[18]     primal_upper  76
    y[18]     mccormick2[18]  -1
    y[18]     mccormick3[18]  1
    y[19]     OBJ       -1034
    y[19]     primal_upper  934
    y[19]     mccormick2[19]  -1
    y[19]     mccormick3[19]  1
    y[20]     OBJ       -509
    y[20]     primal_upper  409
    y[20]     mccormick2[20]  -1
    y[20]     mccormick3[20]  1
    y[21]     OBJ       -515
    y[21]     primal_upper  415
    y[21]     mccormick2[21]  -1
    y[21]     mccormick3[21]  1
    y[22]     OBJ       -905
    y[22]     primal_upper  805
    y[22]     mccormick2[22]  -1
    y[22]     mccormick3[22]  1
    y[23]     OBJ       -1043
    y[23]     primal_upper  943
    y[23]     mccormick2[23]  -1
    y[23]     mccormick3[23]  1
    y[24]     OBJ       -734
    y[24]     primal_upper  634
    y[24]     mccormick2[24]  -1
    y[24]     mccormick3[24]  1
    y[25]     OBJ       -599
    y[25]     primal_upper  499
    y[25]     mccormick2[25]  -1
    y[25]     mccormick3[25]  1
    y[26]     OBJ       -1090
    y[26]     primal_upper  990
    y[26]     mccormick2[26]  -1
    y[26]     mccormick3[26]  1
    y[27]     OBJ       -530
    y[27]     primal_upper  430
    y[27]     mccormick2[27]  -1
    y[27]     mccormick3[27]  1
    y[28]     OBJ       -782
    y[28]     primal_upper  682
    y[28]     mccormick2[28]  -1
    y[28]     mccormick3[28]  1
    y[29]     OBJ       -459
    y[29]     primal_upper  359
    y[29]     mccormick2[29]  -1
    y[29]     mccormick3[29]  1
    y[30]     OBJ       -978
    y[30]     primal_upper  878
    y[30]     mccormick2[30]  -1
    y[30]     mccormick3[30]  1
    y[31]     OBJ       -332
    y[31]     primal_upper  232
    y[31]     mccormick2[31]  -1
    y[31]     mccormick3[31]  1
    y[32]     OBJ       -719
    y[32]     primal_upper  619
    y[32]     mccormick2[32]  -1
    y[32]     mccormick3[32]  1
    y[33]     OBJ       -666
    y[33]     primal_upper  566
    y[33]     mccormick2[33]  -1
    y[33]     mccormick3[33]  1
    y[34]     OBJ       -910
    y[34]     primal_upper  810
    y[34]     mccormick2[34]  -1
    y[34]     mccormick3[34]  1
    y[35]     OBJ       -562
    y[35]     primal_upper  462
    y[35]     mccormick2[35]  -1
    y[35]     mccormick3[35]  1
    y[36]     OBJ       -923
    y[36]     primal_upper  823
    y[36]     mccormick2[36]  -1
    y[36]     mccormick3[36]  1
    y[37]     OBJ       -1030
    y[37]     primal_upper  930
    y[37]     mccormick2[37]  -1
    y[37]     mccormick3[37]  1
    y[38]     OBJ       -380
    y[38]     primal_upper  280
    y[38]     mccormick2[38]  -1
    y[38]     mccormick3[38]  1
    y[39]     OBJ       -777
    y[39]     primal_upper  677
    y[39]     mccormick2[39]  -1
    y[39]     mccormick3[39]  1
    u[0]      primal_lower0  803
    u[0]      interdiction[0]  1
    u[0]      mccormick1[0]  -1
    u[0]      mccormick3[0]  1
    u[1]      primal_lower0  669
    u[1]      interdiction[1]  1
    u[1]      mccormick1[1]  -1
    u[1]      mccormick3[1]  1
    u[2]      primal_lower0  7
    u[2]      interdiction[2]  1
    u[2]      mccormick1[2]  -1
    u[2]      mccormick3[2]  1
    u[3]      primal_lower0  494
    u[3]      interdiction[3]  1
    u[3]      mccormick1[3]  -1
    u[3]      mccormick3[3]  1
    u[4]      primal_lower0  485
    u[4]      interdiction[4]  1
    u[4]      mccormick1[4]  -1
    u[4]      mccormick3[4]  1
    u[5]      primal_lower0  151
    u[5]      interdiction[5]  1
    u[5]      mccormick1[5]  -1
    u[5]      mccormick3[5]  1
    u[6]      primal_lower0  526
    u[6]      interdiction[6]  1
    u[6]      mccormick1[6]  -1
    u[6]      mccormick3[6]  1
    u[7]      primal_lower0  211
    u[7]      interdiction[7]  1
    u[7]      mccormick1[7]  -1
    u[7]      mccormick3[7]  1
    u[8]      primal_lower0  495
    u[8]      interdiction[8]  1
    u[8]      mccormick1[8]  -1
    u[8]      mccormick3[8]  1
    u[9]      primal_lower0  977
    u[9]      interdiction[9]  1
    u[9]      mccormick1[9]  -1
    u[9]      mccormick3[9]  1
    u[10]     primal_lower0  765
    u[10]     interdiction[10]  1
    u[10]     mccormick1[10]  -1
    u[10]     mccormick3[10]  1
    u[11]     primal_lower0  704
    u[11]     interdiction[11]  1
    u[11]     mccormick1[11]  -1
    u[11]     mccormick3[11]  1
    u[12]     primal_lower0  656
    u[12]     interdiction[12]  1
    u[12]     mccormick1[12]  -1
    u[12]     mccormick3[12]  1
    u[13]     primal_lower0  889
    u[13]     interdiction[13]  1
    u[13]     mccormick1[13]  -1
    u[13]     mccormick3[13]  1
    u[14]     primal_lower0  47
    u[14]     interdiction[14]  1
    u[14]     mccormick1[14]  -1
    u[14]     mccormick3[14]  1
    u[15]     primal_lower0  499
    u[15]     interdiction[15]  1
    u[15]     mccormick1[15]  -1
    u[15]     mccormick3[15]  1
    u[16]     primal_lower0  168
    u[16]     interdiction[16]  1
    u[16]     mccormick1[16]  -1
    u[16]     mccormick3[16]  1
    u[17]     primal_lower0  638
    u[17]     interdiction[17]  1
    u[17]     mccormick1[17]  -1
    u[17]     mccormick3[17]  1
    u[18]     primal_lower0  141
    u[18]     interdiction[18]  1
    u[18]     mccormick1[18]  -1
    u[18]     mccormick3[18]  1
    u[19]     primal_lower0  514
    u[19]     interdiction[19]  1
    u[19]     mccormick1[19]  -1
    u[19]     mccormick3[19]  1
    u[20]     primal_lower0  167
    u[20]     interdiction[20]  1
    u[20]     mccormick1[20]  -1
    u[20]     mccormick3[20]  1
    u[21]     primal_lower0  910
    u[21]     interdiction[21]  1
    u[21]     mccormick1[21]  -1
    u[21]     mccormick3[21]  1
    u[22]     primal_lower0  134
    u[22]     interdiction[22]  1
    u[22]     mccormick1[22]  -1
    u[22]     mccormick3[22]  1
    u[23]     primal_lower0  586
    u[23]     interdiction[23]  1
    u[23]     mccormick1[23]  -1
    u[23]     mccormick3[23]  1
    u[24]     primal_lower0  559
    u[24]     interdiction[24]  1
    u[24]     mccormick1[24]  -1
    u[24]     mccormick3[24]  1
    u[25]     primal_lower0  234
    u[25]     interdiction[25]  1
    u[25]     mccormick1[25]  -1
    u[25]     mccormick3[25]  1
    u[26]     primal_lower0  783
    u[26]     interdiction[26]  1
    u[26]     mccormick1[26]  -1
    u[26]     mccormick3[26]  1
    u[27]     primal_lower0  921
    u[27]     interdiction[27]  1
    u[27]     mccormick1[27]  -1
    u[27]     mccormick3[27]  1
    u[28]     primal_lower0  88
    u[28]     interdiction[28]  1
    u[28]     mccormick1[28]  -1
    u[28]     mccormick3[28]  1
    u[29]     primal_lower0  334
    u[29]     interdiction[29]  1
    u[29]     mccormick1[29]  -1
    u[29]     mccormick3[29]  1
    u[30]     primal_lower0  32
    u[30]     interdiction[30]  1
    u[30]     mccormick1[30]  -1
    u[30]     mccormick3[30]  1
    u[31]     primal_lower0  963
    u[31]     interdiction[31]  1
    u[31]     mccormick1[31]  -1
    u[31]     mccormick3[31]  1
    u[32]     primal_lower0  936
    u[32]     interdiction[32]  1
    u[32]     mccormick1[32]  -1
    u[32]     mccormick3[32]  1
    u[33]     primal_lower0  437
    u[33]     interdiction[33]  1
    u[33]     mccormick1[33]  -1
    u[33]     mccormick3[33]  1
    u[34]     primal_lower0  531
    u[34]     interdiction[34]  1
    u[34]     mccormick1[34]  -1
    u[34]     mccormick3[34]  1
    u[35]     primal_lower0  193
    u[35]     interdiction[35]  1
    u[35]     mccormick1[35]  -1
    u[35]     mccormick3[35]  1
    u[36]     primal_lower0  828
    u[36]     interdiction[36]  1
    u[36]     mccormick1[36]  -1
    u[36]     mccormick3[36]  1
    u[37]     primal_lower0  578
    u[37]     interdiction[37]  1
    u[37]     mccormick1[37]  -1
    u[37]     mccormick3[37]  1
    u[38]     primal_lower0  529
    u[38]     interdiction[38]  1
    u[38]     mccormick1[38]  -1
    u[38]     mccormick3[38]  1
    u[39]     primal_lower0  705
    u[39]     interdiction[39]  1
    u[39]     mccormick1[39]  -1
    u[39]     mccormick3[39]  1
    z[0]      primal_upper  74
    z[0]      mccormick1[0]  1
    z[0]      mccormick2[0]  1
    z[0]      mccormick3[0]  -1
    z[1]      primal_upper  97
    z[1]      mccormick1[1]  1
    z[1]      mccormick2[1]  1
    z[1]      mccormick3[1]  -1
    z[2]      primal_upper  93
    z[2]      mccormick1[2]  1
    z[2]      mccormick2[2]  1
    z[2]      mccormick3[2]  -1
    z[3]      primal_upper  42
    z[3]      mccormick1[3]  1
    z[3]      mccormick2[3]  1
    z[3]      mccormick3[3]  -1
    z[4]      primal_upper  50
    z[4]      mccormick1[4]  1
    z[4]      mccormick2[4]  1
    z[4]      mccormick3[4]  -1
    z[5]      primal_upper  81
    z[5]      mccormick1[5]  1
    z[5]      mccormick2[5]  1
    z[5]      mccormick3[5]  -1
    z[6]      primal_upper  40
    z[6]      mccormick1[6]  1
    z[6]      mccormick2[6]  1
    z[6]      mccormick3[6]  -1
    z[7]      primal_upper  81
    z[7]      mccormick1[7]  1
    z[7]      mccormick2[7]  1
    z[7]      mccormick3[7]  -1
    z[8]      primal_upper  56
    z[8]      mccormick1[8]  1
    z[8]      mccormick2[8]  1
    z[8]      mccormick3[8]  -1
    z[9]      primal_upper  14
    z[9]      mccormick1[9]  1
    z[9]      mccormick2[9]  1
    z[9]      mccormick3[9]  -1
    z[10]     primal_upper  61
    z[10]     mccormick1[10]  1
    z[10]     mccormick2[10]  1
    z[10]     mccormick3[10]  -1
    z[11]     primal_upper  38
    z[11]     mccormick1[11]  1
    z[11]     mccormick2[11]  1
    z[11]     mccormick3[11]  -1
    z[12]     primal_upper  60
    z[12]     mccormick1[12]  1
    z[12]     mccormick2[12]  1
    z[12]     mccormick3[12]  -1
    z[13]     primal_upper  76
    z[13]     mccormick1[13]  1
    z[13]     mccormick2[13]  1
    z[13]     mccormick3[13]  -1
    z[14]     primal_upper  85
    z[14]     mccormick1[14]  1
    z[14]     mccormick2[14]  1
    z[14]     mccormick3[14]  -1
    z[15]     primal_upper  25
    z[15]     mccormick1[15]  1
    z[15]     mccormick2[15]  1
    z[15]     mccormick3[15]  -1
    z[16]     primal_upper  77
    z[16]     mccormick1[16]  1
    z[16]     mccormick2[16]  1
    z[16]     mccormick3[16]  -1
    z[17]     primal_upper  80
    z[17]     mccormick1[17]  1
    z[17]     mccormick2[17]  1
    z[17]     mccormick3[17]  -1
    z[18]     primal_upper  8
    z[18]     mccormick1[18]  1
    z[18]     mccormick2[18]  1
    z[18]     mccormick3[18]  -1
    z[19]     primal_upper  93
    z[19]     mccormick1[19]  1
    z[19]     mccormick2[19]  1
    z[19]     mccormick3[19]  -1
    z[20]     primal_upper  41
    z[20]     mccormick1[20]  1
    z[20]     mccormick2[20]  1
    z[20]     mccormick3[20]  -1
    z[21]     primal_upper  42
    z[21]     mccormick1[21]  1
    z[21]     mccormick2[21]  1
    z[21]     mccormick3[21]  -1
    z[22]     primal_upper  80
    z[22]     mccormick1[22]  1
    z[22]     mccormick2[22]  1
    z[22]     mccormick3[22]  -1
    z[23]     primal_upper  94
    z[23]     mccormick1[23]  1
    z[23]     mccormick2[23]  1
    z[23]     mccormick3[23]  -1
    z[24]     primal_upper  63
    z[24]     mccormick1[24]  1
    z[24]     mccormick2[24]  1
    z[24]     mccormick3[24]  -1
    z[25]     primal_upper  50
    z[25]     mccormick1[25]  1
    z[25]     mccormick2[25]  1
    z[25]     mccormick3[25]  -1
    z[26]     primal_upper  99
    z[26]     mccormick1[26]  1
    z[26]     mccormick2[26]  1
    z[26]     mccormick3[26]  -1
    z[27]     primal_upper  43
    z[27]     mccormick1[27]  1
    z[27]     mccormick2[27]  1
    z[27]     mccormick3[27]  -1
    z[28]     primal_upper  68
    z[28]     mccormick1[28]  1
    z[28]     mccormick2[28]  1
    z[28]     mccormick3[28]  -1
    z[29]     primal_upper  36
    z[29]     mccormick1[29]  1
    z[29]     mccormick2[29]  1
    z[29]     mccormick3[29]  -1
    z[30]     primal_upper  88
    z[30]     mccormick1[30]  1
    z[30]     mccormick2[30]  1
    z[30]     mccormick3[30]  -1
    z[31]     primal_upper  23
    z[31]     mccormick1[31]  1
    z[31]     mccormick2[31]  1
    z[31]     mccormick3[31]  -1
    z[32]     primal_upper  62
    z[32]     mccormick1[32]  1
    z[32]     mccormick2[32]  1
    z[32]     mccormick3[32]  -1
    z[33]     primal_upper  57
    z[33]     mccormick1[33]  1
    z[33]     mccormick2[33]  1
    z[33]     mccormick3[33]  -1
    z[34]     primal_upper  81
    z[34]     mccormick1[34]  1
    z[34]     mccormick2[34]  1
    z[34]     mccormick3[34]  -1
    z[35]     primal_upper  46
    z[35]     mccormick1[35]  1
    z[35]     mccormick2[35]  1
    z[35]     mccormick3[35]  -1
    z[36]     primal_upper  82
    z[36]     mccormick1[36]  1
    z[36]     mccormick2[36]  1
    z[36]     mccormick3[36]  -1
    z[37]     primal_upper  93
    z[37]     mccormick1[37]  1
    z[37]     mccormick2[37]  1
    z[37]     mccormick3[37]  -1
    z[38]     primal_upper  28
    z[38]     mccormick1[38]  1
    z[38]     mccormick2[38]  1
    z[38]     mccormick3[38]  -1
    z[39]     primal_upper  68
    z[39]     mccormick1[39]  1
    z[39]     mccormick2[39]  1
    z[39]     mccormick3[39]  -1
    MARKER    'MARKER'                 'INTEND'
RHS
    RHS1      primal_upper  6188
    RHS1      primal_lower0  5071
    RHS1      interdiction[0]  1
    RHS1      interdiction[1]  1
    RHS1      interdiction[2]  1
    RHS1      interdiction[3]  1
    RHS1      interdiction[4]  1
    RHS1      interdiction[5]  1
    RHS1      interdiction[6]  1
    RHS1      interdiction[7]  1
    RHS1      interdiction[8]  1
    RHS1      interdiction[9]  1
    RHS1      interdiction[10]  1
    RHS1      interdiction[11]  1
    RHS1      interdiction[12]  1
    RHS1      interdiction[13]  1
    RHS1      interdiction[14]  1
    RHS1      interdiction[15]  1
    RHS1      interdiction[16]  1
    RHS1      interdiction[17]  1
    RHS1      interdiction[18]  1
    RHS1      interdiction[19]  1
    RHS1      interdiction[20]  1
    RHS1      interdiction[21]  1
    RHS1      interdiction[22]  1
    RHS1      interdiction[23]  1
    RHS1      interdiction[24]  1
    RHS1      interdiction[25]  1
    RHS1      interdiction[26]  1
    RHS1      interdiction[27]  1
    RHS1      interdiction[28]  1
    RHS1      interdiction[29]  1
    RHS1      interdiction[30]  1
    RHS1      interdiction[31]  1
    RHS1      interdiction[32]  1
    RHS1      interdiction[33]  1
    RHS1      interdiction[34]  1
    RHS1      interdiction[35]  1
    RHS1      interdiction[36]  1
    RHS1      interdiction[37]  1
    RHS1      interdiction[38]  1
    RHS1      interdiction[39]  1
    RHS1      mccormick3[0]  1
    RHS1      mccormick3[1]  1
    RHS1      mccormick3[2]  1
    RHS1      mccormick3[3]  1
    RHS1      mccormick3[4]  1
    RHS1      mccormick3[5]  1
    RHS1      mccormick3[6]  1
    RHS1      mccormick3[7]  1
    RHS1      mccormick3[8]  1
    RHS1      mccormick3[9]  1
    RHS1      mccormick3[10]  1
    RHS1      mccormick3[11]  1
    RHS1      mccormick3[12]  1
    RHS1      mccormick3[13]  1
    RHS1      mccormick3[14]  1
    RHS1      mccormick3[15]  1
    RHS1      mccormick3[16]  1
    RHS1      mccormick3[17]  1
    RHS1      mccormick3[18]  1
    RHS1      mccormick3[19]  1
    RHS1      mccormick3[20]  1
    RHS1      mccormick3[21]  1
    RHS1      mccormick3[22]  1
    RHS1      mccormick3[23]  1
    RHS1      mccormick3[24]  1
    RHS1      mccormick3[25]  1
    RHS1      mccormick3[26]  1
    RHS1      mccormick3[27]  1
    RHS1      mccormick3[28]  1
    RHS1      mccormick3[29]  1
    RHS1      mccormick3[30]  1
    RHS1      mccormick3[31]  1
    RHS1      mccormick3[32]  1
    RHS1      mccormick3[33]  1
    RHS1      mccormick3[34]  1
    RHS1      mccormick3[35]  1
    RHS1      mccormick3[36]  1
    RHS1      mccormick3[37]  1
    RHS1      mccormick3[38]  1
    RHS1      mccormick3[39]  1
BOUNDS
 BV BND1      x[0]    
 BV BND1      x[1]    
 BV BND1      x[2]    
 BV BND1      x[3]    
 BV BND1      x[4]    
 BV BND1      x[5]    
 BV BND1      x[6]    
 BV BND1      x[7]    
 BV BND1      x[8]    
 BV BND1      x[9]    
 BV BND1      x[10]   
 BV BND1      x[11]   
 BV BND1      x[12]   
 BV BND1      x[13]   
 BV BND1      x[14]   
 BV BND1      x[15]   
 BV BND1      x[16]   
 BV BND1      x[17]   
 BV BND1      x[18]   
 BV BND1      x[19]   
 BV BND1      x[20]   
 BV BND1      x[21]   
 BV BND1      x[22]   
 BV BND1      x[23]   
 BV BND1      x[24]   
 BV BND1      x[25]   
 BV BND1      x[26]   
 BV BND1      x[27]   
 BV BND1      x[28]   
 BV BND1      x[29]   
 BV BND1      x[30]   
 BV BND1      x[31]   
 BV BND1      x[32]   
 BV BND1      x[33]   
 BV BND1      x[34]   
 BV BND1      x[35]   
 BV BND1      x[36]   
 BV BND1      x[37]   
 BV BND1      x[38]   
 BV BND1      x[39]   
 BV BND1      y[0]    
 BV BND1      y[1]    
 BV BND1      y[2]    
 BV BND1      y[3]    
 BV BND1      y[4]    
 BV BND1      y[5]    
 BV BND1      y[6]    
 BV BND1      y[7]    
 BV BND1      y[8]    
 BV BND1      y[9]    
 BV BND1      y[10]   
 BV BND1      y[11]   
 BV BND1      y[12]   
 BV BND1      y[13]   
 BV BND1      y[14]   
 BV BND1      y[15]   
 BV BND1      y[16]   
 BV BND1      y[17]   
 BV BND1      y[18]   
 BV BND1      y[19]   
 BV BND1      y[20]   
 BV BND1      y[21]   
 BV BND1      y[22]   
 BV BND1      y[23]   
 BV BND1      y[24]   
 BV BND1      y[25]   
 BV BND1      y[26]   
 BV BND1      y[27]   
 BV BND1      y[28]   
 BV BND1      y[29]   
 BV BND1      y[30]   
 BV BND1      y[31]   
 BV BND1      y[32]   
 BV BND1      y[33]   
 BV BND1      y[34]   
 BV BND1      y[35]   
 BV BND1      y[36]   
 BV BND1      y[37]   
 BV BND1      y[38]   
 BV BND1      y[39]   
 BV BND1      u[0]    
 BV BND1      u[1]    
 BV BND1      u[2]    
 BV BND1      u[3]    
 BV BND1      u[4]    
 BV BND1      u[5]    
 BV BND1      u[6]    
 BV BND1      u[7]    
 BV BND1      u[8]    
 BV BND1      u[9]    
 BV BND1      u[10]   
 BV BND1      u[11]   
 BV BND1      u[12]   
 BV BND1      u[13]   
 BV BND1      u[14]   
 BV BND1      u[15]   
 BV BND1      u[16]   
 BV BND1      u[17]   
 BV BND1      u[18]   
 BV BND1      u[19]   
 BV BND1      u[20]   
 BV BND1      u[21]   
 BV BND1      u[22]   
 BV BND1      u[23]   
 BV BND1      u[24]   
 BV BND1      u[25]   
 BV BND1      u[26]   
 BV BND1      u[27]   
 BV BND1      u[28]   
 BV BND1      u[29]   
 BV BND1      u[30]   
 BV BND1      u[31]   
 BV BND1      u[32]   
 BV BND1      u[33]   
 BV BND1      u[34]   
 BV BND1      u[35]   
 BV BND1      u[36]   
 BV BND1      u[37]   
 BV BND1      u[38]   
 BV BND1      u[39]   
 BV BND1      z[0]    
 BV BND1      z[1]    
 BV BND1      z[2]    
 BV BND1      z[3]    
 BV BND1      z[4]    
 BV BND1      z[5]    
 BV BND1      z[6]    
 BV BND1      z[7]    
 BV BND1      z[8]    
 BV BND1      z[9]    
 BV BND1      z[10]   
 BV BND1      z[11]   
 BV BND1      z[12]   
 BV BND1      z[13]   
 BV BND1      z[14]   
 BV BND1      z[15]   
 BV BND1      z[16]   
 BV BND1      z[17]   
 BV BND1      z[18]   
 BV BND1      z[19]   
 BV BND1      z[20]   
 BV BND1      z[21]   
 BV BND1      z[22]   
 BV BND1      z[23]   
 BV BND1      z[24]   
 BV BND1      z[25]   
 BV BND1      z[26]   
 BV BND1      z[27]   
 BV BND1      z[28]   
 BV BND1      z[29]   
 BV BND1      z[30]   
 BV BND1      z[31]   
 BV BND1      z[32]   
 BV BND1      z[33]   
 BV BND1      z[34]   
 BV BND1      z[35]   
 BV BND1      z[36]   
 BV BND1      z[37]   
 BV BND1      z[38]   
 BV BND1      z[39]   
ENDATA
